c description: Random 3-CNF over 8 variables and 6 clauses
c generator: CNFgen (0.9.2)
c copyright: (C) 2012-2022 Massimo Lauria <massimo.lauria@uniroma1.it>
c url: https://massimolauria.net/cnfgen
c command line: cnfgen randkcnf 3 8 6
c
p cnf 8 6
-4 5 -8 0
1 7 -8 0
-4 6 7 0
5 6 7 0
3 -6 -7 0
-3 -5 6 0
